
******************************************************************************
This program contains Ipopt, a library for large-scale nonlinear optimization.
 Ipopt is released as open source code under the Eclipse Public License (EPL).
         For more information visit http://projects.coin-or.org/Ipopt
******************************************************************************

This is Ipopt version 3.12.6, running with linear solver ma57.

Number of nonzeros in equality constraint Jacobian...:        0
Number of nonzeros in inequality constraint Jacobian.:        0
Number of nonzeros in Lagrangian Hessian.............:    20100

Total number of variables............................:      200
                     variables with only lower bounds:        0
                variables with lower and upper bounds:        0
                     variables with only upper bounds:        0
Total number of equality constraints.................:        0
Total number of inequality constraints...............:        0
        inequality constraints with only lower bounds:        0
   inequality constraints with lower and upper bounds:        0
        inequality constraints with only upper bounds:        0

iter    objective    inf_pr   inf_du lg(mu)  ||d||  lg(rg) alpha_du alpha_pr  ls
   0  8.6512245e+15 0.00e+00 1.72e+06  -1.0 0.00e+00    -  0.00e+00 0.00e+00   0
   1  9.9625534e+01 0.00e+00 1.50e-04  -1.0 1.50e+00  -4.0 1.00e+00 1.00e+00f  1
   2  9.9625468e+01 0.00e+00 1.10e-11  -5.7 1.32e-10  -4.5 1.00e+00 1.00e+00f  1
   3  9.9625468e+01 0.00e+00 4.17e-12 -12.9 5.81e-12  -5.0 1.00e+00 5.00e-01f  2
   4  9.9625468e+01 0.00e+00 1.91e-12 -12.9 1.71e-11  -5.4 1.00e+00 1.25e-01f  4
   5  9.9625468e+01 0.00e+00 7.01e-12 -12.9 5.62e-11  -5.9 1.00e+00 1.00e+00F  1
   6  9.9625468e+01 0.00e+00 1.19e-11 -12.9 1.93e-10  -6.4 1.00e+00 6.10e-05f 15
   7  9.9625468e+01 0.00e+00 2.81e-12 -12.9 3.82e-10  -6.9 1.00e+00 1.53e-05f 17
   8  9.9625468e+01 0.00e+00 2.64e-12 -12.9 1.34e-09  -7.3 1.00e+00 7.45e-09f 28
   9  9.9625468e+01 0.00e+00 3.52e-12 -12.9 4.24e-09  -7.8 1.00e+00 3.73e-09f 29
iter    objective    inf_pr   inf_du lg(mu)  ||d||  lg(rg) alpha_du alpha_pr  ls
  10  9.9625468e+01 0.00e+00 3.52e-12 -12.9 1.14e-08  -8.3 1.00e+00 5.82e-11f 35
  11  9.9625468e+01 0.00e+00 3.52e-12 -12.9 3.40e-08  -8.8 1.00e+00 1.46e-11f 37
  12  9.9625468e+01 0.00e+00 3.52e-12 -12.9 1.04e-07  -9.2 1.00e+00 7.28e-12f 38
  13  9.9625468e+01 0.00e+00 3.52e-12 -12.9 3.11e-07  -9.7 1.00e+00 1.82e-12f 40
  14  9.9625468e+01 0.00e+00 3.52e-12 -12.9 9.85e-07 -10.2 1.00e+00 9.09e-13f 41
  15  9.9625468e+01 0.00e+00 3.52e-12 -12.9 3.54e-07  -9.8 1.00e+00 1.82e-12f 40
  16  9.9625468e+01 0.00e+00 3.99e-13 -12.9 1.04e-06 -10.3 1.00e+00 1.00e+00w  1

Number of Iterations....: 16

                                   (scaled)                 (unscaled)
Objective...............:   9.9625468164639131e-07    9.9625468164639130e+01
Dual infeasibility......:   3.9948499761521819e-13    3.9948499761521816e-05
Constraint violation....:   0.0000000000000000e+00    0.0000000000000000e+00
Complementarity.........:   0.0000000000000000e+00    0.0000000000000000e+00
Overall NLP error.......:   3.9948499761521819e-13    3.9948499761521816e-05


Number of objective function evaluations             = 380
Number of objective gradient evaluations             = 17
Number of equality constraint evaluations            = 0
Number of inequality constraint evaluations          = 0
Number of equality constraint Jacobian evaluations   = 0
Number of inequality constraint Jacobian evaluations = 0
Number of Lagrangian Hessian evaluations             = 16
Total CPU secs in IPOPT (w/o function evaluations)   =      0.213
Total CPU secs in NLP function evaluations           =      1.917

EXIT: Solved To Acceptable Level.

 ** SUBROUTINE CUTEST_csetup: Warning. The problem has no general constraints. 
 ** Other tools may be preferable ** 

************************ CUTEst statistics ************************


 Package used            :  IPOPT
 Problem                 :  ARGLINB   
 # variables             =             200
 # constraints           =               0
 # objective functions   =        0.3980000E+03
 # objective gradients   =        0.1800000E+02
 # objective Hessians    =        0.1700000E+02
 # Hessian-vector prdct  =        0.0000000E+00
 # constraints functions =        0.0000000E+00
 # constraints gradients =        0.0000000E+00
 # constraints Hessians  =        0.0000000E+00
 Exit code               =               1
 Final f                 =   0.9962547E+02
 Set up time             =            0.12 seconds
 Solve time              =            2.35 seconds


******************************************************************

System Time =       2.1310000420 s.
